WARNING: for repeatability, setting FPU to use double precision
============================[ Problem Statistics ]=============================
|                                                                             |
|  Number of symmetries:          21                                          |
|  Number of invertingSyms:        0                                          |
|  Number of variables:           132                                         |
|  Number of clauses:             738                                         |
|  Parse time:                   0.00 s                                       |
|                                                                             |
============================[ Search Statistics ]==============================
| Conflicts |          ORIGINAL         |          LEARNT          | Progress |
|           |    Vars  Clauses Literals |    Limit  Clauses Lit/Cl |          |
===============================================================================
|       100 |     132      738     1584 |      270      117     57 |  0.006 % |
|       250 |     132      738     1584 |      297      203     48 |  0.006 % |
|       475 |     132      738     1584 |      327      390     43 |  0.006 % |
|       812 |     132      738     1584 |      360      311     35 |  0.006 % |
|      1318 |     132      738     1584 |      396      237     31 |  0.006 % |
|      2077 |     132      738     1584 |      435      256     29 |  0.006 % |
|      3216 |     132      738     1584 |      479      451     31 |  0.069 % |
|      4924 |     132      738     1584 |      527      401     32 |  0.006 % |
===============================================================================
restarts              : 30
conflicts             : 6437           (91957 /sec)
symconflicts          : 973            (13900 /sec)
decisions             : 10071          (0.00 % random) (143871 /sec)
propagations          : 133538         (1907686 /sec)
sympropagations       : 6186           (88371 /sec)
conflict literals     : 246763         (9.30 % deleted)
Memory used           : 5.00 MB
CPU time              : 0.07 s

UNSATISFIABLE
